NAME : compression
TYPE : TSP
DIMENSION : 50
EDGE_WEIGHT_TYPE : EUC_2D
NODE_COORD_SECTION
1 795871 489054
2 615203 911590
3 607811 892468
4 120340 642387
5 153828 745755
6 108042 677552
7 137654 856115
8 776108 401081
9 92177 642041
10 316624 372723
11 961750 220685
12 554717 513326
13 157356 787933
14 657673 925778
15 159890 656312
16 563013 133028
17 115960 695275
18 302627 215883
19 538913 384795
20 867767 701393
21 655762 478435
22 502209 633735
23 395923 845947
24 685395 519669
25 740372 833205
26 929018 152058
27 828266 239384
28 252602 725340
29 389759 776214
30 613944 917290
31 118496 204016
32 596661 403706
33 692925 589221
34 126166 615521
35 650691 185838
36 147925 766823
37 114857 692806
38 296618 390706
39 529816 211240
40 596687 871829
41 178301 738789
42 595053 494473
43 234538 154443
44 305815 340867
45 128712 723818
46 970970 347559
47 217442 460574
48 633422 514482
49 762356 414533
50 550626 146851
EOF
